35
0	0
1	643
2	0
3	1982
4	1400
5	174
6	235
7	0
8	235
9	1139
10	677
11	238
12	393
13	851
14	1971
15	1997
16	524
17	0
18	1977
19	1613
20	518
21	1821
22	1986
23	1989
24	278
25	1995
26	799
27	790
28	1
29	393
30	1992
31	795
32	802
33	1998
34	1999
